unsat
( c10
  c10437
  c10445
  c10449
  c10508
  c10514
  c10549
  c10553
  c10561
  c10563
  c10565
  c10577
  c10589
  c10600
  c10626
  c10650
  c10657
  c11
  c11328
  c11330
  c11357
  c11478
  c11482
  c11484
  c11498
  c11514
  c11529
  c11533
  c11537
  c11544
  c11555
  c11565
  c11569
  c11588
  c11599
  c12
  c14642
  c14664
  c14675
  c14684
  c15628
  c15661
  c15663
  c15665
  c15675
  c15677
  c15679
  c15687
  c16
  c21
  c26
  c30
  c36
  c39
  c46
  c4735
  c4739
  c4758
  c4764
  c4772
  c4790
  c4802
  c4808
  c4811
  c4820
  c4827
  c4831
  c4841
  c4845
  c4855
  c5
  c5038
  c5041
  c54
  c5950
  c5951
  c5956
  c5964
  c5977
  c5998
  c6
  c6001
  c74
  c790
  c8
  c9
  c95 )
